
%FILE DATA:	Soccer Computational Problem for MiniZinc Models	%
%AUTHOR:	Jack Wall	%
%CONTACT:  	116397063@umail.ucc.ie			%
%LAST UPDATE:	03/03/2020, 12:12:28						%
%DESCRIPTION: 	54 games played with 18 games left				%


n=9; %number of teams

%Games to play
games=[|3,4|2,1|8,7|4,7|7,9|8,9|2,9|2,4|6,4|3,1|9,8|6,1|2,3|6,7|5,4|5,8|9,7|9,2|];

%Initial points
iPoints=[19,17,20,19,18,18,13,15,13];

%POSITION CONSTRAINTS
% [|teamID, operator, position|...]
% operators index:
%  1 for =  operator
%  2 for >  operator
%  3 for >= operator
%  4 for <  operator
%  5 for <= operator
positionConstraints=[|6,1,1|4,4,3|9,5,3|];